p cnf 8 33
-5 1 4 -6 -2 3 -7 0
-3 2 0
3 1 0
-4 -8 0
4 -5 -6 1 -2 3 0
-2 -4 -8 -1 0
4 7 1 0
1 -2 0
-4 1 3 -6 0
-2 7 0
8 1 -3 0
-8 7 0
-1 -2 6 0
-5 7 -1 0
3 -2 1 -4 0
-3 -8 1 0
-6 4 -3 -1 5 0
-2 -4 0
7 6 3 0
-8 -1 6 0
8 7 -5 2 -3 -6 0
-5 -8 1 3 0
-8 6 -5 4 -3 -1 0
5 4 0
5 1 -3 -6 0
-6 5 2 0
4 6 3 -1 -2 0
-6 -8 -2 0
-8 -4 5 0
-6 -4 5 -8 0
-2 -3 0
-3 -1 -2 5 -8 6 0
2 4 5 7 1 6 -8 -3 0
